# Objective value = 13
WA1n 0
WA1p 0
WA2n 0
WA2p 1
WB1n 1
WB1p 0
WC1n 1
WC1p 0
WD1n 1
WD1p 0
WD2n 1
WD2p 0
WE1n 3
WE1p 0
WE2n 0
WE2p 0
WT1n 1
WT1p 0
WT2n 1
WT2p 0
100 101
a 1
b 1
c 1
d 1
e 1
f 1
g 0
h 0
i 1
j 1
